words_hard_train/9638.qaiger
aag 94 12 0 1 82
2
4
8
14
24
34
42
50
68
76
94
120
189
6 2 4
10 9 5
12 7 11
16 14 8
18 3 5
20 16 19
22 12 21
26 11 24
28 10 25
30 27 29
32 22 30
36 33 35
38 23 31
40 37 39
44 34 42
46 35 43
48 45 47
52 29 50
54 28 51
56 53 55
58 49 57
60 48 56
62 59 61
64 40 62
66 65 61
70 47 68
72 46 69
74 71 73
78 54 76
80 55 77
82 79 81
84 75 82
86 74 83
88 85 87
90 67 88
92 91 87
96 72 95
98 73 94
100 97 99
102 100 81
104 101 80
106 103 105
108 93 106
110 109 105
112 111 99
114 110 98
116 113 115
118 117 81
122 80 120
124 116 122
126 119 125
128 92 107
130 129 109
132 130 95
134 131 94
136 133 135
138 99 121
140 111 138
142 98 120
144 143 81
146 141 144
148 136 147
150 14 5
152 15 4
154 151 153
156 155 8
158 41 63
160 159 65
162 160 43
164 33 39
166 163 165
168 156 166
170 66 89
172 171 91
174 173 68
176 168 175
178 161 42
180 172 69
182 179 181
184 176 182
186 148 184
188 127 186
i0 1 x2[1]
i1 2 y2[4]
i2 2 y2[3]
i3 1 x2[0]
i4 2 y2[5]
i5 1 x2[2]
i6 1 x2[3]
i7 2 y2[6]
i8 1 x2[4]
i9 2 y2[7]
i10 1 x2[5]
i11 1 x2[6]
o0 bool[0]
c
simplified
  !=
    subtract
      subtract
        227
        1 x2
      >> 3
        2 y2
    1 x2
