words_hard_train/9638.qaiger.qdimacs
p cnf 94 247
a 1 34 7 47 17 21 60 0
e 2 3 4 5 6 8 9 10 11 12 13 14 15 16 18 19 20 22 23 24 25 26 27 28 29 30 31 32 33 35 36 37 38 39 40 41 42 43 44 45 46 48 49 50 51 52 53 54 55 56 57 58 59 61 62 63 64 65 66 67 68 69 70 71 72 73 74 75 76 77 78 79 80 81 82 83 84 85 86 87 88 89 90 91 92 93 94 0
-1 -2 3 0
1 -3 0
2 -3 0
4 2 5 0
-4 -5 0
-2 -5 0
3 5 6 0
-3 -6 0
-5 -6 0
-7 -4 8 0
7 -8 0
4 -8 0
1 2 9 0
-1 -9 0
-2 -9 0
-8 9 10 0
8 -10 0
-9 -10 0
-6 10 11 0
6 -11 0
-10 -11 0
5 -12 13 0
-5 -13 0
12 -13 0
-5 12 14 0
5 -14 0
-12 -14 0
13 14 15 0
-13 -15 0
-14 -15 0
-11 -15 16 0
11 -16 0
15 -16 0
16 17 18 0
-16 -18 0
-17 -18 0
11 15 19 0
-11 -19 0
-15 -19 0
18 19 20 0
-18 -20 0
-19 -20 0
-17 -21 22 0
17 -22 0
21 -22 0
17 21 23 0
-17 -23 0
-21 -23 0
22 23 24 0
-22 -24 0
-23 -24 0
14 -25 26 0
-14 -26 0
25 -26 0
-14 25 27 0
14 -27 0
-25 -27 0
26 27 28 0
-26 -28 0
-27 -28 0
24 28 29 0
-24 -29 0
-28 -29 0
-24 -28 30 0
24 -30 0
28 -30 0
29 30 31 0
-29 -31 0
-30 -31 0
-20 -31 32 0
20 -32 0
31 -32 0
32 30 33 0
-32 -33 0
-30 -33 0
23 -34 35 0
-23 -35 0
34 -35 0
-23 34 36 0
23 -36 0
-34 -36 0
35 36 37 0
-35 -37 0
-36 -37 0
-27 -38 39 0
27 -39 0
38 -39 0
27 38 40 0
-27 -40 0
-38 -40 0
39 40 41 0
-39 -41 0
-40 -41 0
37 -41 42 0
-37 -42 0
41 -42 0
-37 41 43 0
37 -43 0
-41 -43 0
42 43 44 0
-42 -44 0
-43 -44 0
33 -44 45 0
-33 -45 0
44 -45 0
45 43 46 0
-45 -46 0
-43 -46 0
-36 47 48 0
36 -48 0
-47 -48 0
36 -47 49 0
-36 -49 0
47 -49 0
48 49 50 0
-48 -50 0
-49 -50 0
-50 40 51 0
50 -51 0
-40 -51 0
50 -40 52 0
-50 -52 0
40 -52 0
51 52 53 0
-51 -53 0
-52 -53 0
46 -53 54 0
-46 -54 0
53 -54 0
54 52 55 0
-54 -55 0
-52 -55 0
55 49 56 0
-55 -56 0
-49 -56 0
-55 -49 57 0
55 -57 0
49 -57 0
56 57 58 0
-56 -58 0
-57 -58 0
58 40 59 0
-58 -59 0
-40 -59 0
-40 -60 61 0
40 -61 0
60 -61 0
-58 -61 62 0
58 -62 0
61 -62 0
59 62 63 0
-59 -63 0
-62 -63 0
-46 53 64 0
46 -64 0
-53 -64 0
64 54 65 0
-64 -65 0
-54 -65 0
-65 47 66 0
65 -66 0
-47 -66 0
65 -47 67 0
-65 -67 0
47 -67 0
66 67 68 0
-66 -68 0
-67 -68 0
49 60 69 0
-49 -69 0
-60 -69 0
55 -69 70 0
-55 -70 0
69 -70 0
-49 -60 71 0
49 -71 0
60 -71 0
71 40 72 0
-71 -72 0
-40 -72 0
70 -72 73 0
-70 -73 0
72 -73 0
-68 73 74 0
68 -74 0
-73 -74 0
-7 2 75 0
7 -75 0
-2 -75 0
7 -2 76 0
-7 -76 0
2 -76 0
75 76 77 0
-75 -77 0
-76 -77 0
77 -4 78 0
-77 -78 0
4 -78 0
20 31 79 0
-20 -79 0
-31 -79 0
79 32 80 0
-79 -80 0
-32 -80 0
-80 21 81 0
80 -81 0
-21 -81 0
16 19 82 0
-16 -82 0
-19 -82 0
81 82 83 0
-81 -83 0
-82 -83 0
-78 -83 84 0
78 -84 0
83 -84 0
-33 44 85 0
33 -85 0
-44 -85 0
85 45 86 0
-85 -86 0
-45 -86 0
86 -34 87 0
-86 -87 0
34 -87 0
-84 87 88 0
84 -88 0
-87 -88 0
80 -21 89 0
-80 -89 0
21 -89 0
-86 34 90 0
86 -90 0
-34 -90 0
89 90 91 0
-89 -91 0
-90 -91 0
-88 -91 92 0
88 -92 0
91 -92 0
-74 -92 93 0
74 -93 0
92 -93 0
63 -93 94 0
-63 -94 0
93 -94 0
-94 0
